nN = 10;
nR = 30;
nH = 1;

a = [[18, 24, 18, 25, 18, 18, 18, 17, 25, 16, 21, 20, 17, 20, 20, 19, 20, 16, 19, 20, 22, 20, 24, 21, 18, 22, 22, 24, 19, 16], [20, 21, 23, 16, 21, 18, 20, 25, 15, 21, 22, 21, 19, 25, 20, 16, 18, 25, 23, 17, 21, 20, 17, 18, 16, 21, 19, 23, 16, 24], [18, 21, 19, 15, 25, 22, 15, 20, 18, 24, 21, 19, 25, 19, 19, 15, 15, 16, 25, 20, 23, 22, 17, 23, 16, 25, 16, 25, 24, 17], [20, 22, 24, 17, 19, 18, 15, 15, 21, 23, 22, 22, 24, 17, 25, 15, 25, 25, 16, 24, 19, 25, 22, 15, 18, 17, 20, 24, 21, 23], [24, 18, 24, 16, 24, 21, 16, 15, 19, 25, 17, 16, 22, 22, 24, 25, 15, 19, 18, 18, 22, 18, 23, 23, 17, 20, 17, 15, 23, 22], [21, 20, 25, 17, 21, 22, 23, 23, 15, 23, 23, 23, 18, 24, 21, 25, 16, 17, 23, 23, 19, 22, 16, 22, 16, 15, 22, 22, 23, 24], [25, 24, 23, 22, 17, 18, 25, 18, 18, 17, 17, 22, 22, 24, 17, 21, 18, 24, 23, 21, 22, 22, 16, 16, 23, 24, 19, 16, 17, 22], [16, 18, 25, 25, 15, 22, 18, 15, 19, 17, 23, 20, 22, 16, 19, 18, 17, 20, 23, 15, 21, 22, 19, 22, 21, 18, 22, 24, 21, 18], [20, 16, 25, 19, 17, 20, 15, 16, 24, 17, 20, 15, 22, 20, 15, 24, 15, 19, 22, 18, 19, 25, 19, 21, 21, 24, 22, 23, 24, 19], [25, 22, 24, 20, 18, 24, 23, 17, 16, 24, 16, 24, 15, 24, 17, 16, 18, 16, 17, 21, 24, 21, 17, 20, 16, 20, 17, 16, 18, 21]];
c = [[[0, 0, 0, 0, 0, 0, 0, 0, 0, 0, 0, 0, 0, 0, 0, 0, 0, 0, 0, 0, 0, 0, 0, 0, 0, 0, 0, 0, 0, 0], [50, 46, 42, 34, 48, 36, 44, 50, 38, 30, 38, 48, 39, 38, 45, 40, 39, 37, 37, 38, 48, 32, 41, 31, 48, 32, 44, 37, 31, 46], [48, 30, 46, 39, 30, 49, 42, 49, 34, 35, 32, 31, 37, 45, 37, 40, 44, 46, 36, 33, 46, 39, 45, 44, 46, 50, 43, 34, 45, 47], [40, 39, 46, 35, 31, 35, 44, 40, 45, 50, 39, 37, 41, 49, 31, 32, 41, 43, 37, 33, 38, 33, 30, 43, 33, 46, 45, 35, 40, 39], [38, 43, 42, 40, 44, 42, 37, 33, 35, 35, 35, 36, 47, 42, 39, 36, 48, 34, 48, 40, 39, 38, 31, 41, 41, 34, 36, 44, 49, 46], [44, 42, 46, 38, 32, 44, 37, 41, 38, 39, 30, 39, 40, 39, 34, 41, 34, 45, 47, 37, 48, 39, 32, 39, 42, 50, 43, 41, 30, 36], [50, 44, 41, 36, 47, 48, 49, 48, 40, 45, 44, 41, 47, 47, 47, 35, 35, 37, 35, 34, 30, 48, 31, 30, 36, 39, 44, 31, 40, 49], [39, 34, 49, 33, 40, 33, 31, 41, 36, 37, 46, 41, 46, 33, 38, 35, 50, 34, 48, 39, 33, 46, 46, 44, 38, 35, 43, 30, 42, 34], [35, 47, 35, 39, 46, 30, 32, 41, 33, 31, 33, 47, 48, 33, 35, 37, 38, 38, 49, 40, 50, 37, 30, 42, 36, 45, 30, 45, 46, 38], [48, 46, 39, 42, 35, 33, 45, 37, 36, 35, 44, 42, 41, 43, 48, 49, 44, 43, 47, 30, 50, 45, 31, 43, 48, 31, 33, 44, 40, 45]], [[0, 0, 0, 0, 0, 0, 0, 0, 0, 0, 0, 0, 0, 0, 0, 0, 0, 0, 0, 0, 0, 0, 0, 0, 0, 0, 0, 0, 0, 0], [0, 0, 0, 0, 0, 0, 0, 0, 0, 0, 0, 0, 0, 0, 0, 0, 0, 0, 0, 0, 0, 0, 0, 0, 0, 0, 0, 0, 0, 0], [31, 35, 39, 45, 40, 37, 38, 36, 46, 49, 31, 50, 32, 34, 44, 45, 37, 37, 35, 43, 38, 47, 39, 38, 44, 40, 37, 46, 50, 49], [47, 43, 42, 42, 40, 44, 43, 37, 48, 43, 31, 43, 32, 38, 50, 48, 36, 42, 49, 31, 32, 31, 40, 35, 35, 36, 45, 46, 48, 41], [39, 32, 46, 41, 46, 46, 32, 31, 47, 43, 50, 42, 33, 44, 49, 41, 30, 50, 34, 32, 44, 37, 38, 32, 37, 45, 46, 38, 39, 48], [49, 44, 48, 33, 49, 43, 46, 41, 44, 39, 41, 34, 45, 41, 43, 39, 34, 36, 41, 43, 48, 32, 48, 41, 44, 38, 33, 47, 50, 45], [38, 43, 30, 48, 50, 50, 31, 38, 31, 36, 32, 49, 30, 36, 42, 41, 44, 49, 35, 34, 45, 35, 38, 41, 33, 43, 44, 49, 40, 37], [42, 41, 31, 42, 50, 45, 48, 31, 33, 43, 49, 47, 33, 48, 39, 30, 49, 34, 33, 41, 49, 40, 44, 30, 46, 40, 46, 46, 37, 37], [31, 34, 34, 47, 49, 32, 47, 44, 35, 46, 32, 32, 30, 36, 50, 32, 39, 36, 31, 42, 30, 42, 41, 41, 42, 42, 30, 33, 43, 33], [44, 31, 38, 50, 38, 36, 37, 42, 44, 47, 40, 45, 44, 33, 42, 39, 40, 35, 34, 38, 41, 36, 39, 50, 46, 36, 39, 43, 41, 34]], [[0, 0, 0, 0, 0, 0, 0, 0, 0, 0, 0, 0, 0, 0, 0, 0, 0, 0, 0, 0, 0, 0, 0, 0, 0, 0, 0, 0, 0, 0], [0, 0, 0, 0, 0, 0, 0, 0, 0, 0, 0, 0, 0, 0, 0, 0, 0, 0, 0, 0, 0, 0, 0, 0, 0, 0, 0, 0, 0, 0], [0, 0, 0, 0, 0, 0, 0, 0, 0, 0, 0, 0, 0, 0, 0, 0, 0, 0, 0, 0, 0, 0, 0, 0, 0, 0, 0, 0, 0, 0], [35, 50, 33, 40, 48, 44, 37, 46, 30, 34, 50, 33, 31, 47, 35, 37, 43, 31, 42, 31, 39, 46, 40, 33, 42, 35, 36, 50, 32, 44], [36, 50, 42, 47, 44, 35, 39, 36, 32, 46, 32, 46, 31, 43, 50, 34, 40, 32, 46, 49, 32, 33, 47, 49, 38, 43, 37, 35, 50, 47], [37, 35, 46, 40, 38, 36, 31, 49, 47, 31, 44, 31, 30, 31, 33, 48, 33, 41, 41, 37, 39, 36, 44, 42, 38, 33, 41, 30, 39, 36], [33, 46, 49, 43, 49, 31, 47, 49, 47, 30, 44, 43, 45, 37, 30, 49, 34, 49, 35, 34, 41, 44, 45, 50, 36, 39, 37, 39, 40, 40], [30, 36, 49, 40, 32, 36, 50, 30, 47, 36, 50, 37, 40, 40, 47, 33, 34, 40, 42, 35, 41, 40, 34, 41, 32, 36, 37, 36, 38, 31], [41, 42, 32, 34, 39, 37, 45, 33, 35, 45, 46, 34, 34, 33, 49, 41, 30, 34, 40, 35, 35, 42, 32, 33, 36, 44, 48, 38, 47, 46], [39, 38, 44, 48, 34, 36, 33, 47, 40, 34, 36, 45, 46, 37, 48, 44, 42, 50, 31, 37, 36, 35, 43, 37, 44, 35, 35, 47, 49, 31]], [[0, 0, 0, 0, 0, 0, 0, 0, 0, 0, 0, 0, 0, 0, 0, 0, 0, 0, 0, 0, 0, 0, 0, 0, 0, 0, 0, 0, 0, 0], [0, 0, 0, 0, 0, 0, 0, 0, 0, 0, 0, 0, 0, 0, 0, 0, 0, 0, 0, 0, 0, 0, 0, 0, 0, 0, 0, 0, 0, 0], [0, 0, 0, 0, 0, 0, 0, 0, 0, 0, 0, 0, 0, 0, 0, 0, 0, 0, 0, 0, 0, 0, 0, 0, 0, 0, 0, 0, 0, 0], [0, 0, 0, 0, 0, 0, 0, 0, 0, 0, 0, 0, 0, 0, 0, 0, 0, 0, 0, 0, 0, 0, 0, 0, 0, 0, 0, 0, 0, 0], [30, 36, 34, 33, 32, 32, 32, 44, 37, 45, 36, 39, 37, 47, 37, 46, 36, 36, 42, 47, 36, 45, 34, 43, 30, 42, 43, 32, 30, 37], [44, 46, 35, 36, 36, 30, 41, 47, 42, 50, 46, 47, 49, 43, 49, 31, 37, 43, 31, 33, 49, 42, 50, 42, 38, 44, 37, 34, 46, 47], [32, 40, 44, 47, 47, 38, 38, 30, 30, 49, 32, 37, 33, 36, 40, 30, 37, 31, 35, 40, 43, 30, 37, 48, 50, 46, 38, 30, 34, 37], [44, 42, 47, 39, 32, 50, 37, 38, 38, 48, 30, 35, 35, 31, 48, 31, 37, 49, 49, 32, 46, 36, 46, 30, 30, 46, 45, 36, 48, 49], [45, 42, 36, 48, 39, 42, 37, 37, 47, 38, 32, 42, 49, 50, 32, 41, 46, 43, 41, 44, 36, 42, 42, 33, 43, 47, 46, 40, 48, 46], [40, 46, 44, 38, 37, 32, 41, 38, 46, 49, 35, 50, 31, 37, 41, 45, 30, 37, 47, 31, 50, 40, 39, 44, 30, 37, 39, 41, 48, 45]], [[0, 0, 0, 0, 0, 0, 0, 0, 0, 0, 0, 0, 0, 0, 0, 0, 0, 0, 0, 0, 0, 0, 0, 0, 0, 0, 0, 0, 0, 0], [0, 0, 0, 0, 0, 0, 0, 0, 0, 0, 0, 0, 0, 0, 0, 0, 0, 0, 0, 0, 0, 0, 0, 0, 0, 0, 0, 0, 0, 0], [0, 0, 0, 0, 0, 0, 0, 0, 0, 0, 0, 0, 0, 0, 0, 0, 0, 0, 0, 0, 0, 0, 0, 0, 0, 0, 0, 0, 0, 0], [0, 0, 0, 0, 0, 0, 0, 0, 0, 0, 0, 0, 0, 0, 0, 0, 0, 0, 0, 0, 0, 0, 0, 0, 0, 0, 0, 0, 0, 0], [0, 0, 0, 0, 0, 0, 0, 0, 0, 0, 0, 0, 0, 0, 0, 0, 0, 0, 0, 0, 0, 0, 0, 0, 0, 0, 0, 0, 0, 0], [48, 31, 30, 45, 35, 49, 33, 34, 47, 33, 32, 47, 46, 39, 48, 41, 37, 43, 46, 43, 32, 32, 30, 30, 35, 47, 35, 36, 33, 32], [43, 39, 44, 49, 34, 33, 48, 44, 32, 38, 35, 46, 30, 47, 43, 47, 32, 32, 50, 50, 30, 32, 50, 44, 43, 40, 36, 30, 48, 34], [34, 32, 37, 36, 31, 35, 33, 31, 30, 48, 47, 40, 45, 41, 34, 33, 35, 38, 38, 39, 39, 30, 35, 39, 34, 50, 39, 30, 30, 49], [30, 34, 38, 48, 44, 48, 44, 32, 44, 31, 34, 44, 38, 48, 47, 35, 41, 43, 46, 35, 47, 40, 45, 35, 36, 41, 45, 41, 34, 44], [48, 35, 33, 40, 40, 49, 48, 42, 31, 31, 47, 34, 35, 45, 47, 49, 48, 46, 38, 45, 38, 33, 43, 48, 44, 32, 49, 40, 39, 35]], [[0, 0, 0, 0, 0, 0, 0, 0, 0, 0, 0, 0, 0, 0, 0, 0, 0, 0, 0, 0, 0, 0, 0, 0, 0, 0, 0, 0, 0, 0], [0, 0, 0, 0, 0, 0, 0, 0, 0, 0, 0, 0, 0, 0, 0, 0, 0, 0, 0, 0, 0, 0, 0, 0, 0, 0, 0, 0, 0, 0], [0, 0, 0, 0, 0, 0, 0, 0, 0, 0, 0, 0, 0, 0, 0, 0, 0, 0, 0, 0, 0, 0, 0, 0, 0, 0, 0, 0, 0, 0], [0, 0, 0, 0, 0, 0, 0, 0, 0, 0, 0, 0, 0, 0, 0, 0, 0, 0, 0, 0, 0, 0, 0, 0, 0, 0, 0, 0, 0, 0], [0, 0, 0, 0, 0, 0, 0, 0, 0, 0, 0, 0, 0, 0, 0, 0, 0, 0, 0, 0, 0, 0, 0, 0, 0, 0, 0, 0, 0, 0], [0, 0, 0, 0, 0, 0, 0, 0, 0, 0, 0, 0, 0, 0, 0, 0, 0, 0, 0, 0, 0, 0, 0, 0, 0, 0, 0, 0, 0, 0], [40, 43, 33, 38, 37, 42, 41, 43, 41, 37, 34, 49, 37, 45, 31, 41, 37, 45, 46, 44, 50, 31, 38, 43, 38, 44, 46, 35, 50, 47], [50, 43, 35, 47, 40, 49, 34, 49, 32, 36, 47, 43, 50, 48, 44, 38, 32, 48, 50, 48, 42, 46, 37, 46, 31, 34, 32, 47, 44, 39], [32, 48, 35, 45, 43, 43, 33, 39, 46, 46, 49, 49, 41, 39, 35, 50, 48, 37, 34, 30, 30, 31, 33, 43, 39, 46, 33, 50, 40, 31], [46, 32, 35, 30, 32, 44, 30, 37, 31, 45, 38, 49, 45, 37, 36, 44, 35, 36, 49, 49, 38, 35, 41, 37, 43, 50, 49, 44, 49, 38]], [[0, 0, 0, 0, 0, 0, 0, 0, 0, 0, 0, 0, 0, 0, 0, 0, 0, 0, 0, 0, 0, 0, 0, 0, 0, 0, 0, 0, 0, 0], [0, 0, 0, 0, 0, 0, 0, 0, 0, 0, 0, 0, 0, 0, 0, 0, 0, 0, 0, 0, 0, 0, 0, 0, 0, 0, 0, 0, 0, 0], [0, 0, 0, 0, 0, 0, 0, 0, 0, 0, 0, 0, 0, 0, 0, 0, 0, 0, 0, 0, 0, 0, 0, 0, 0, 0, 0, 0, 0, 0], [0, 0, 0, 0, 0, 0, 0, 0, 0, 0, 0, 0, 0, 0, 0, 0, 0, 0, 0, 0, 0, 0, 0, 0, 0, 0, 0, 0, 0, 0], [0, 0, 0, 0, 0, 0, 0, 0, 0, 0, 0, 0, 0, 0, 0, 0, 0, 0, 0, 0, 0, 0, 0, 0, 0, 0, 0, 0, 0, 0], [0, 0, 0, 0, 0, 0, 0, 0, 0, 0, 0, 0, 0, 0, 0, 0, 0, 0, 0, 0, 0, 0, 0, 0, 0, 0, 0, 0, 0, 0], [0, 0, 0, 0, 0, 0, 0, 0, 0, 0, 0, 0, 0, 0, 0, 0, 0, 0, 0, 0, 0, 0, 0, 0, 0, 0, 0, 0, 0, 0], [45, 38, 40, 48, 32, 46, 33, 30, 33, 49, 42, 43, 32, 35, 49, 50, 42, 49, 31, 33, 50, 49, 35, 36, 32, 35, 43, 32, 37, 45], [36, 38, 32, 49, 43, 37, 47, 42, 40, 46, 34, 39, 50, 31, 32, 38, 45, 32, 43, 49, 30, 44, 36, 39, 35, 42, 30, 44, 33, 31], [36, 30, 41, 42, 31, 47, 39, 40, 36, 30, 33, 30, 35, 43, 50, 34, 47, 34, 40, 31, 41, 43, 42, 32, 44, 42, 37, 35, 46, 35]], [[0, 0, 0, 0, 0, 0, 0, 0, 0, 0, 0, 0, 0, 0, 0, 0, 0, 0, 0, 0, 0, 0, 0, 0, 0, 0, 0, 0, 0, 0], [0, 0, 0, 0, 0, 0, 0, 0, 0, 0, 0, 0, 0, 0, 0, 0, 0, 0, 0, 0, 0, 0, 0, 0, 0, 0, 0, 0, 0, 0], [0, 0, 0, 0, 0, 0, 0, 0, 0, 0, 0, 0, 0, 0, 0, 0, 0, 0, 0, 0, 0, 0, 0, 0, 0, 0, 0, 0, 0, 0], [0, 0, 0, 0, 0, 0, 0, 0, 0, 0, 0, 0, 0, 0, 0, 0, 0, 0, 0, 0, 0, 0, 0, 0, 0, 0, 0, 0, 0, 0], [0, 0, 0, 0, 0, 0, 0, 0, 0, 0, 0, 0, 0, 0, 0, 0, 0, 0, 0, 0, 0, 0, 0, 0, 0, 0, 0, 0, 0, 0], [0, 0, 0, 0, 0, 0, 0, 0, 0, 0, 0, 0, 0, 0, 0, 0, 0, 0, 0, 0, 0, 0, 0, 0, 0, 0, 0, 0, 0, 0], [0, 0, 0, 0, 0, 0, 0, 0, 0, 0, 0, 0, 0, 0, 0, 0, 0, 0, 0, 0, 0, 0, 0, 0, 0, 0, 0, 0, 0, 0], [0, 0, 0, 0, 0, 0, 0, 0, 0, 0, 0, 0, 0, 0, 0, 0, 0, 0, 0, 0, 0, 0, 0, 0, 0, 0, 0, 0, 0, 0], [43, 44, 34, 50, 46, 42, 48, 31, 33, 50, 41, 32, 40, 50, 34, 41, 46, 36, 47, 37, 37, 37, 41, 46, 38, 31, 46, 49, 38, 38], [41, 30, 40, 47, 31, 45, 41, 49, 40, 31, 50, 35, 30, 38, 40, 38, 35, 40, 50, 40, 36, 38, 47, 40, 49, 42, 46, 42, 46, 46]], [[0, 0, 0, 0, 0, 0, 0, 0, 0, 0, 0, 0, 0, 0, 0, 0, 0, 0, 0, 0, 0, 0, 0, 0, 0, 0, 0, 0, 0, 0], [0, 0, 0, 0, 0, 0, 0, 0, 0, 0, 0, 0, 0, 0, 0, 0, 0, 0, 0, 0, 0, 0, 0, 0, 0, 0, 0, 0, 0, 0], [0, 0, 0, 0, 0, 0, 0, 0, 0, 0, 0, 0, 0, 0, 0, 0, 0, 0, 0, 0, 0, 0, 0, 0, 0, 0, 0, 0, 0, 0], [0, 0, 0, 0, 0, 0, 0, 0, 0, 0, 0, 0, 0, 0, 0, 0, 0, 0, 0, 0, 0, 0, 0, 0, 0, 0, 0, 0, 0, 0], [0, 0, 0, 0, 0, 0, 0, 0, 0, 0, 0, 0, 0, 0, 0, 0, 0, 0, 0, 0, 0, 0, 0, 0, 0, 0, 0, 0, 0, 0], [0, 0, 0, 0, 0, 0, 0, 0, 0, 0, 0, 0, 0, 0, 0, 0, 0, 0, 0, 0, 0, 0, 0, 0, 0, 0, 0, 0, 0, 0], [0, 0, 0, 0, 0, 0, 0, 0, 0, 0, 0, 0, 0, 0, 0, 0, 0, 0, 0, 0, 0, 0, 0, 0, 0, 0, 0, 0, 0, 0], [0, 0, 0, 0, 0, 0, 0, 0, 0, 0, 0, 0, 0, 0, 0, 0, 0, 0, 0, 0, 0, 0, 0, 0, 0, 0, 0, 0, 0, 0], [0, 0, 0, 0, 0, 0, 0, 0, 0, 0, 0, 0, 0, 0, 0, 0, 0, 0, 0, 0, 0, 0, 0, 0, 0, 0, 0, 0, 0, 0], [43, 31, 31, 39, 37, 48, 42, 38, 30, 45, 31, 33, 48, 30, 31, 31, 40, 50, 37, 32, 38, 46, 37, 30, 46, 42, 43, 33, 32, 34]], [[0, 0, 0, 0, 0, 0, 0, 0, 0, 0, 0, 0, 0, 0, 0, 0, 0, 0, 0, 0, 0, 0, 0, 0, 0, 0, 0, 0, 0, 0], [0, 0, 0, 0, 0, 0, 0, 0, 0, 0, 0, 0, 0, 0, 0, 0, 0, 0, 0, 0, 0, 0, 0, 0, 0, 0, 0, 0, 0, 0], [0, 0, 0, 0, 0, 0, 0, 0, 0, 0, 0, 0, 0, 0, 0, 0, 0, 0, 0, 0, 0, 0, 0, 0, 0, 0, 0, 0, 0, 0], [0, 0, 0, 0, 0, 0, 0, 0, 0, 0, 0, 0, 0, 0, 0, 0, 0, 0, 0, 0, 0, 0, 0, 0, 0, 0, 0, 0, 0, 0], [0, 0, 0, 0, 0, 0, 0, 0, 0, 0, 0, 0, 0, 0, 0, 0, 0, 0, 0, 0, 0, 0, 0, 0, 0, 0, 0, 0, 0, 0], [0, 0, 0, 0, 0, 0, 0, 0, 0, 0, 0, 0, 0, 0, 0, 0, 0, 0, 0, 0, 0, 0, 0, 0, 0, 0, 0, 0, 0, 0], [0, 0, 0, 0, 0, 0, 0, 0, 0, 0, 0, 0, 0, 0, 0, 0, 0, 0, 0, 0, 0, 0, 0, 0, 0, 0, 0, 0, 0, 0], [0, 0, 0, 0, 0, 0, 0, 0, 0, 0, 0, 0, 0, 0, 0, 0, 0, 0, 0, 0, 0, 0, 0, 0, 0, 0, 0, 0, 0, 0], [0, 0, 0, 0, 0, 0, 0, 0, 0, 0, 0, 0, 0, 0, 0, 0, 0, 0, 0, 0, 0, 0, 0, 0, 0, 0, 0, 0, 0, 0], [0, 0, 0, 0, 0, 0, 0, 0, 0, 0, 0, 0, 0, 0, 0, 0, 0, 0, 0, 0, 0, 0, 0, 0, 0, 0, 0, 0, 0, 0]]];

q = [[[14], [18], [20], [16], [18], [17], [21], [25], [16], [22], [9], [25], [7], [16], [24], [5], [9], [13], [10], [8], [24], [20], [21], [8], [11], [22], [24], [13], [13], [14]], [[25], [25], [6], [5], [21], [25], [24], [12], [14], [19], [15], [12], [19], [5], [16], [8], [19], [9], [11], [6], [15], [22], [16], [7], [12], [15], [21], [18], [17], [5]], [[10], [8], [15], [8], [12], [25], [8], [19], [12], [11], [16], [15], [22], [25], [15], [20], [16], [8], [18], [21], [22], [17], [12], [18], [5], [5], [5], [24], [11], [6]], [[25], [11], [23], [9], [18], [18], [19], [25], [25], [16], [17], [24], [6], [10], [17], [18], [7], [14], [25], [23], [9], [7], [12], [8], [16], [17], [15], [11], [24], [17]], [[12], [5], [13], [14], [5], [7], [10], [21], [8], [12], [20], [6], [15], [7], [7], [24], [23], [7], [25], [15], [13], [16], [6], [23], [8], [14], [10], [10], [23], [13]], [[15], [17], [15], [10], [24], [12], [10], [8], [22], [10], [18], [25], [16], [24], [17], [13], [16], [24], [22], [13], [23], [22], [10], [9], [19], [16], [12], [15], [21], [7]], [[13], [24], [17], [19], [21], [11], [15], [21], [11], [13], [6], [19], [23], [11], [16], [15], [19], [14], [17], [6], [11], [8], [16], [17], [6], [15], [23], [23], [14], [11]], [[15], [17], [25], [23], [21], [7], [24], [18], [20], [24], [8], [20], [7], [22], [17], [17], [7], [20], [15], [20], [15], [15], [8], [9], [14], [25], [20], [14], [10], [16]], [[17], [13], [14], [7], [16], [16], [19], [22], [23], [17], [24], [22], [11], [13], [22], [12], [22], [19], [15], [6], [21], [14], [21], [13], [21], [13], [9], [21], [8], [17]], [[5], [14], [21], [9], [5], [9], [16], [11], [24], [14], [10], [22], [18], [19], [16], [10], [6], [12], [7], [14], [12], [22], [12], [21], [19], [16], [9], [15], [8], [22]]];
Q = [[38], [35], [34], [38], [31], [38], [36], [39], [39], [33]];
